c File: flat50_3_0.col
c
c SOURCE: Joseph Culberson (joe@cs.ualberta.ca)
c DESCRIPTION: Quasi-random coloring problem
c              generated with flatness = 0
c                             probability = 0.139
c                             known coloring = 3
c                             random seed = 1621
c              Creation Date:  Tue Jun  9 12:13:48 1998
c Maximum degree = 8 Minimum degree = 2
c p edge 50 115
c cnf created by edge2cnf
p cnf 150 545
-1 -2 0
-1 -3 0
-2 -3 0
1 2 3 0
-4 -5 0
-4 -6 0
-5 -6 0
4 5 6 0
-7 -8 0
-7 -9 0
-8 -9 0
7 8 9 0
-10 -11 0
-10 -12 0
-11 -12 0
10 11 12 0
-13 -14 0
-13 -15 0
-14 -15 0
13 14 15 0
-16 -17 0
-16 -18 0
-17 -18 0
16 17 18 0
-19 -20 0
-19 -21 0
-20 -21 0
19 20 21 0
-22 -23 0
-22 -24 0
-23 -24 0
22 23 24 0
-25 -26 0
-25 -27 0
-26 -27 0
25 26 27 0
-28 -29 0
-28 -30 0
-29 -30 0
28 29 30 0
-31 -32 0
-31 -33 0
-32 -33 0
31 32 33 0
-34 -35 0
-34 -36 0
-35 -36 0
34 35 36 0
-37 -38 0
-37 -39 0
-38 -39 0
37 38 39 0
-40 -41 0
-40 -42 0
-41 -42 0
40 41 42 0
-43 -44 0
-43 -45 0
-44 -45 0
43 44 45 0
-46 -47 0
-46 -48 0
-47 -48 0
46 47 48 0
-49 -50 0
-49 -51 0
-50 -51 0
49 50 51 0
-52 -53 0
-52 -54 0
-53 -54 0
52 53 54 0
-55 -56 0
-55 -57 0
-56 -57 0
55 56 57 0
-58 -59 0
-58 -60 0
-59 -60 0
58 59 60 0
-61 -62 0
-61 -63 0
-62 -63 0
61 62 63 0
-64 -65 0
-64 -66 0
-65 -66 0
64 65 66 0
-67 -68 0
-67 -69 0
-68 -69 0
67 68 69 0
-70 -71 0
-70 -72 0
-71 -72 0
70 71 72 0
-73 -74 0
-73 -75 0
-74 -75 0
73 74 75 0
-76 -77 0
-76 -78 0
-77 -78 0
76 77 78 0
-79 -80 0
-79 -81 0
-80 -81 0
79 80 81 0
-82 -83 0
-82 -84 0
-83 -84 0
82 83 84 0
-85 -86 0
-85 -87 0
-86 -87 0
85 86 87 0
-88 -89 0
-88 -90 0
-89 -90 0
88 89 90 0
-91 -92 0
-91 -93 0
-92 -93 0
91 92 93 0
-94 -95 0
-94 -96 0
-95 -96 0
94 95 96 0
-97 -98 0
-97 -99 0
-98 -99 0
97 98 99 0
-100 -101 0
-100 -102 0
-101 -102 0
100 101 102 0
-103 -104 0
-103 -105 0
-104 -105 0
103 104 105 0
-106 -107 0
-106 -108 0
-107 -108 0
106 107 108 0
-109 -110 0
-109 -111 0
-110 -111 0
109 110 111 0
-112 -113 0
-112 -114 0
-113 -114 0
112 113 114 0
-115 -116 0
-115 -117 0
-116 -117 0
115 116 117 0
-118 -119 0
-118 -120 0
-119 -120 0
118 119 120 0
-121 -122 0
-121 -123 0
-122 -123 0
121 122 123 0
-124 -125 0
-124 -126 0
-125 -126 0
124 125 126 0
-127 -128 0
-127 -129 0
-128 -129 0
127 128 129 0
-130 -131 0
-130 -132 0
-131 -132 0
130 131 132 0
-133 -134 0
-133 -135 0
-134 -135 0
133 134 135 0
-136 -137 0
-136 -138 0
-137 -138 0
136 137 138 0
-139 -140 0
-139 -141 0
-140 -141 0
139 140 141 0
-142 -143 0
-142 -144 0
-143 -144 0
142 143 144 0
-145 -146 0
-145 -147 0
-146 -147 0
145 146 147 0
-148 -149 0
-148 -150 0
-149 -150 0
148 149 150 0
-52 -1 0
-53 -2 0
-54 -3 0
-61 -1 0
-62 -2 0
-63 -3 0
-67 -1 0
-68 -2 0
-69 -3 0
-88 -1 0
-89 -2 0
-90 -3 0
-106 -1 0
-107 -2 0
-108 -3 0
-109 -1 0
-110 -2 0
-111 -3 0
-124 -1 0
-125 -2 0
-126 -3 0
-139 -1 0
-140 -2 0
-141 -3 0
-58 -4 0
-59 -5 0
-60 -6 0
-103 -4 0
-104 -5 0
-105 -6 0
-118 -4 0
-119 -5 0
-120 -6 0
-139 -4 0
-140 -5 0
-141 -6 0
-100 -7 0
-101 -8 0
-102 -9 0
-118 -7 0
-119 -8 0
-120 -9 0
-142 -7 0
-143 -8 0
-144 -9 0
-145 -7 0
-146 -8 0
-147 -9 0
-64 -10 0
-65 -11 0
-66 -12 0
-67 -10 0
-68 -11 0
-69 -12 0
-88 -10 0
-89 -11 0
-90 -12 0
-94 -10 0
-95 -11 0
-96 -12 0
-103 -10 0
-104 -11 0
-105 -12 0
-112 -10 0
-113 -11 0
-114 -12 0
-79 -13 0
-80 -14 0
-81 -15 0
-91 -13 0
-92 -14 0
-93 -15 0
-100 -13 0
-101 -14 0
-102 -15 0
-112 -13 0
-113 -14 0
-114 -15 0
-55 -16 0
-56 -17 0
-57 -18 0
-64 -16 0
-65 -17 0
-66 -18 0
-79 -16 0
-80 -17 0
-81 -18 0
-85 -16 0
-86 -17 0
-87 -18 0
-124 -16 0
-125 -17 0
-126 -18 0
-139 -16 0
-140 -17 0
-141 -18 0
-58 -19 0
-59 -20 0
-60 -21 0
-64 -19 0
-65 -20 0
-66 -21 0
-94 -19 0
-95 -20 0
-96 -21 0
-97 -19 0
-98 -20 0
-99 -21 0
-118 -19 0
-119 -20 0
-120 -21 0
-136 -19 0
-137 -20 0
-138 -21 0
-145 -19 0
-146 -20 0
-147 -21 0
-73 -22 0
-74 -23 0
-75 -24 0
-85 -22 0
-86 -23 0
-87 -24 0
-115 -22 0
-116 -23 0
-117 -24 0
-139 -22 0
-140 -23 0
-141 -24 0
-67 -25 0
-68 -26 0
-69 -27 0
-127 -25 0
-128 -26 0
-129 -27 0
-91 -28 0
-92 -29 0
-93 -30 0
-97 -28 0
-98 -29 0
-99 -30 0
-103 -28 0
-104 -29 0
-105 -30 0
-133 -28 0
-134 -29 0
-135 -30 0
-145 -28 0
-146 -29 0
-147 -30 0
-52 -31 0
-53 -32 0
-54 -33 0
-76 -31 0
-77 -32 0
-78 -33 0
-85 -31 0
-86 -32 0
-87 -33 0
-88 -31 0
-89 -32 0
-90 -33 0
-109 -31 0
-110 -32 0
-111 -33 0
-82 -34 0
-83 -35 0
-84 -36 0
-121 -34 0
-122 -35 0
-123 -36 0
-130 -34 0
-131 -35 0
-132 -36 0
-145 -34 0
-146 -35 0
-147 -36 0
-103 -37 0
-104 -38 0
-105 -39 0
-121 -37 0
-122 -38 0
-123 -39 0
-67 -40 0
-68 -41 0
-69 -42 0
-148 -40 0
-149 -41 0
-150 -42 0
-58 -43 0
-59 -44 0
-60 -45 0
-79 -43 0
-80 -44 0
-81 -45 0
-88 -43 0
-89 -44 0
-90 -45 0
-115 -43 0
-116 -44 0
-117 -45 0
-142 -43 0
-143 -44 0
-144 -45 0
-52 -46 0
-53 -47 0
-54 -48 0
-97 -46 0
-98 -47 0
-99 -48 0
-124 -46 0
-125 -47 0
-126 -48 0
-133 -46 0
-134 -47 0
-135 -48 0
-64 -49 0
-65 -50 0
-66 -51 0
-70 -49 0
-71 -50 0
-72 -51 0
-91 -49 0
-92 -50 0
-93 -51 0
-127 -49 0
-128 -50 0
-129 -51 0
-142 -49 0
-143 -50 0
-144 -51 0
-145 -52 0
-146 -53 0
-147 -54 0
-106 -55 0
-107 -56 0
-108 -57 0
-109 -55 0
-110 -56 0
-111 -57 0
-142 -58 0
-143 -59 0
-144 -60 0
-103 -61 0
-104 -62 0
-105 -63 0
-115 -61 0
-116 -62 0
-117 -63 0
-121 -61 0
-122 -62 0
-123 -63 0
-115 -64 0
-116 -65 0
-117 -66 0
-142 -64 0
-143 -65 0
-144 -66 0
-109 -67 0
-110 -68 0
-111 -69 0
-106 -70 0
-107 -71 0
-108 -72 0
-115 -70 0
-116 -71 0
-117 -72 0
-127 -70 0
-128 -71 0
-129 -72 0
-106 -73 0
-107 -74 0
-108 -75 0
-109 -73 0
-110 -74 0
-111 -75 0
-112 -73 0
-113 -74 0
-114 -75 0
-133 -76 0
-134 -77 0
-135 -78 0
-109 -79 0
-110 -80 0
-111 -81 0
-118 -79 0
-119 -80 0
-120 -81 0
-127 -79 0
-128 -80 0
-129 -81 0
-148 -79 0
-149 -80 0
-150 -81 0
-112 -82 0
-113 -83 0
-114 -84 0
-127 -82 0
-128 -83 0
-129 -84 0
-142 -82 0
-143 -83 0
-144 -84 0
-103 -88 0
-104 -89 0
-105 -90 0
-124 -88 0
-125 -89 0
-126 -90 0
-127 -88 0
-128 -89 0
-129 -90 0
-142 -88 0
-143 -89 0
-144 -90 0
-103 -91 0
-104 -92 0
-105 -93 0
-133 -94 0
-134 -95 0
-135 -96 0
-136 -94 0
-137 -95 0
-138 -96 0
-118 -97 0
-119 -98 0
-120 -99 0
-130 -97 0
-131 -98 0
-132 -99 0
-136 -97 0
-137 -98 0
-138 -99 0
-148 -97 0
-149 -98 0
-150 -99 0
-103 -100 0
-104 -101 0
-105 -102 0
-145 -100 0
-146 -101 0
-147 -102 0
-148 -100 0
-149 -101 0
-150 -102 0
